NAME : n60w200.003.560.tour
COMMENT : Length = 560
COMMENT : Found by LKH [Keld Helsgaun] Tue Nov  7 19:39:24 2017
TYPE : TOUR
DIMENSION : 61
TOUR_SECTION
1
10
56
7
4
2
25
33
41
31
45
55
51
36
15
23
9
37
22
60
18
17
30
27
29
20
42
47
44
58
46
16
43
57
39
40
59
34
52
53
6
12
5
32
19
3
49
21
13
14
48
11
8
26
28
50
54
35
24
38
61
-1
EOF
